\ Model model5. MPC stochastic71_stochastic
\ LP format - for model browsing. Use MPS format to capture full model detail.
Maximize
  4.63804e-05 pv_ev_1 + 4.63804e-05 pv_load_1
   + 2.31902e-06 pv_ev[2020-11-09_14_00_00,0]
   + 2.31902e-06 pv_ev[2020-11-09_14_00_00,1]
   + 2.31902e-06 pv_ev[2020-11-09_14_00_00,2]
   + 2.31902e-06 pv_ev[2020-11-09_14_00_00,3]
   + 2.31902e-06 pv_ev[2020-11-09_14_00_00,4]
   + 2.31902e-06 pv_ev[2020-11-09_14_00_00,5]
   + 2.31902e-06 pv_ev[2020-11-09_14_00_00,6]
   + 2.31902e-06 pv_ev[2020-11-09_14_00_00,7]
   + 2.31902e-06 pv_ev[2020-11-09_14_00_00,8]
   + 2.31902e-06 pv_ev[2020-11-09_14_00_00,9]
   + 2.31902e-06 pv_ev[2020-11-09_14_00_00,10]
   + 2.31902e-06 pv_ev[2020-11-09_14_00_00,11]
   + 2.31902e-06 pv_ev[2020-11-09_14_00_00,12]
   + 2.31902e-06 pv_ev[2020-11-09_14_00_00,13]
   + 2.31902e-06 pv_ev[2020-11-09_14_00_00,14]
   + 2.31902e-06 pv_ev[2020-11-09_14_00_00,15]
   + 2.31902e-06 pv_ev[2020-11-09_14_00_00,16]
   + 2.31902e-06 pv_ev[2020-11-09_14_00_00,17]
   + 2.31902e-06 pv_ev[2020-11-09_14_00_00,18]
   + 2.31902e-06 pv_ev[2020-11-09_14_00_00,19]
   + 2.31902e-06 pv_load[2020-11-09_14_00_00,0]
   + 2.31902e-06 pv_load[2020-11-09_14_00_00,1]
   + 2.31902e-06 pv_load[2020-11-09_14_00_00,2]
   + 2.31902e-06 pv_load[2020-11-09_14_00_00,3]
   + 2.31902e-06 pv_load[2020-11-09_14_00_00,4]
   + 2.31902e-06 pv_load[2020-11-09_14_00_00,5]
   + 2.31902e-06 pv_load[2020-11-09_14_00_00,6]
   + 2.31902e-06 pv_load[2020-11-09_14_00_00,7]
   + 2.31902e-06 pv_load[2020-11-09_14_00_00,8]
   + 2.31902e-06 pv_load[2020-11-09_14_00_00,9]
   + 2.31902e-06 pv_load[2020-11-09_14_00_00,10]
   + 2.31902e-06 pv_load[2020-11-09_14_00_00,11]
   + 2.31902e-06 pv_load[2020-11-09_14_00_00,12]
   + 2.31902e-06 pv_load[2020-11-09_14_00_00,13]
   + 2.31902e-06 pv_load[2020-11-09_14_00_00,14]
   + 2.31902e-06 pv_load[2020-11-09_14_00_00,15]
   + 2.31902e-06 pv_load[2020-11-09_14_00_00,16]
   + 2.31902e-06 pv_load[2020-11-09_14_00_00,17]
   + 2.31902e-06 pv_load[2020-11-09_14_00_00,18]
   + 2.31902e-06 pv_load[2020-11-09_14_00_00,19] + 0.025 C71 + 0.025 C72
   + 0.025 C73 + 0.025 C74 + 0.025 C75 + 0.025 C76 + 0.025 C77 + 0.025 C78
   + 0.025 C79 + 0.025 C80 + 0.025 C81 + 0.025 C82 + 0.025 C83 + 0.025 C84
   + 0.025 C85 + 0.025 C86 + 0.025 C87 + 0.025 C88 + 0.025 C89 + 0.025 C90
   - 0.5 Constant
Subject To
 PV_balance_1: pv_ev_1 + pv_load_1 + pv_grid_1 = 5255.640122999999
 Load_balance_1: pv_load_1 + grid_load_1 = 5339.805014
 Grid_bought_balance_1: C5 - grid_ev_1 - grid_load_1 = 0
 Grid_sold_balance_1: - pv_grid_1 + C6 = 0
 R4: C4 <= 3700
 SOC_update_1: soc_2 - 5.9375e-05 C4 = 0.8384870438943003
 R6: C7 - C10 >= 0
 PV_balance[2020-11-09_14_00_00,0]: pv_ev[2020-11-09_14_00_00,0]
   + pv_load[2020-11-09_14_00_00,0] + pv_grid[2020-11-09_14_00_00,0]
   = 9380.387623605347
 PV_balance[2020-11-09_14_00_00,1]: pv_ev[2020-11-09_14_00_00,1]
   + pv_load[2020-11-09_14_00_00,1] + pv_grid[2020-11-09_14_00_00,1]
   = 4770.18877756445
 PV_balance[2020-11-09_14_00_00,2]: pv_ev[2020-11-09_14_00_00,2]
   + pv_load[2020-11-09_14_00_00,2] + pv_grid[2020-11-09_14_00_00,2]
   = 2967.572416654347
 PV_balance[2020-11-09_14_00_00,3]: pv_ev[2020-11-09_14_00_00,3]
   + pv_load[2020-11-09_14_00_00,3] + pv_grid[2020-11-09_14_00_00,3]
   = 1906.787658148627
 PV_balance[2020-11-09_14_00_00,4]: pv_ev[2020-11-09_14_00_00,4]
   + pv_load[2020-11-09_14_00_00,4] + pv_grid[2020-11-09_14_00_00,4]
   = 6793.527402936538
 PV_balance[2020-11-09_14_00_00,5]: pv_ev[2020-11-09_14_00_00,5]
   + pv_load[2020-11-09_14_00_00,5] + pv_grid[2020-11-09_14_00_00,5]
   = 3112.421440454103
 PV_balance[2020-11-09_14_00_00,6]: pv_ev[2020-11-09_14_00_00,6]
   + pv_load[2020-11-09_14_00_00,6] + pv_grid[2020-11-09_14_00_00,6]
   = 4982.648265578948
 PV_balance[2020-11-09_14_00_00,7]: pv_ev[2020-11-09_14_00_00,7]
   + pv_load[2020-11-09_14_00_00,7] + pv_grid[2020-11-09_14_00_00,7]
   = 6255.703275917003
 PV_balance[2020-11-09_14_00_00,8]: pv_ev[2020-11-09_14_00_00,8]
   + pv_load[2020-11-09_14_00_00,8] + pv_grid[2020-11-09_14_00_00,8]
   = 7480.814695559173
 PV_balance[2020-11-09_14_00_00,9]: pv_ev[2020-11-09_14_00_00,9]
   + pv_load[2020-11-09_14_00_00,9] + pv_grid[2020-11-09_14_00_00,9]
   = 4482.766798343149
 PV_balance[2020-11-09_14_00_00,10]: pv_ev[2020-11-09_14_00_00,10]
   + pv_load[2020-11-09_14_00_00,10] + pv_grid[2020-11-09_14_00_00,10]
   = 7905.632208784115
 PV_balance[2020-11-09_14_00_00,11]: pv_ev[2020-11-09_14_00_00,11]
   + pv_load[2020-11-09_14_00_00,11] + pv_grid[2020-11-09_14_00_00,11]
   = 4164.80572299255
 PV_balance[2020-11-09_14_00_00,12]: pv_ev[2020-11-09_14_00_00,12]
   + pv_load[2020-11-09_14_00_00,12] + pv_grid[2020-11-09_14_00_00,12]
   = 5361.702833134785
 PV_balance[2020-11-09_14_00_00,13]: pv_ev[2020-11-09_14_00_00,13]
   + pv_load[2020-11-09_14_00_00,13] + pv_grid[2020-11-09_14_00_00,13]
   = 5570.573678401185
 PV_balance[2020-11-09_14_00_00,14]: pv_ev[2020-11-09_14_00_00,14]
   + pv_load[2020-11-09_14_00_00,14] + pv_grid[2020-11-09_14_00_00,14]
   = 5271.929993577705
 PV_balance[2020-11-09_14_00_00,15]: pv_ev[2020-11-09_14_00_00,15]
   + pv_load[2020-11-09_14_00_00,15] + pv_grid[2020-11-09_14_00_00,15]
   = 4434.420577472451
 PV_balance[2020-11-09_14_00_00,16]: pv_ev[2020-11-09_14_00_00,16]
   + pv_load[2020-11-09_14_00_00,16] + pv_grid[2020-11-09_14_00_00,16]
   = 5226.83903767036
 PV_balance[2020-11-09_14_00_00,17]: pv_ev[2020-11-09_14_00_00,17]
   + pv_load[2020-11-09_14_00_00,17] + pv_grid[2020-11-09_14_00_00,17]
   = 6815.241248264137
 PV_balance[2020-11-09_14_00_00,18]: pv_ev[2020-11-09_14_00_00,18]
   + pv_load[2020-11-09_14_00_00,18] + pv_grid[2020-11-09_14_00_00,18]
   = 6447.975692226789
 PV_balance[2020-11-09_14_00_00,19]: pv_ev[2020-11-09_14_00_00,19]
   + pv_load[2020-11-09_14_00_00,19] + pv_grid[2020-11-09_14_00_00,19]
   = 7163.56708087834
 Load_balance[2020-11-09_14_00_00,0]: pv_load[2020-11-09_14_00_00,0]
   + grid_load[2020-11-09_14_00_00,0] = 4967.914872191797
 Load_balance[2020-11-09_14_00_00,1]: pv_load[2020-11-09_14_00_00,1]
   + grid_load[2020-11-09_14_00_00,1] = 4967.914872191797
 Load_balance[2020-11-09_14_00_00,2]: pv_load[2020-11-09_14_00_00,2]
   + grid_load[2020-11-09_14_00_00,2] = 4967.914872191797
 Load_balance[2020-11-09_14_00_00,3]: pv_load[2020-11-09_14_00_00,3]
   + grid_load[2020-11-09_14_00_00,3] = 4967.914872191797
 Load_balance[2020-11-09_14_00_00,4]: pv_load[2020-11-09_14_00_00,4]
   + grid_load[2020-11-09_14_00_00,4] = 4967.914872191797
 Load_balance[2020-11-09_14_00_00,5]: pv_load[2020-11-09_14_00_00,5]
   + grid_load[2020-11-09_14_00_00,5] = 4967.914872191797
 Load_balance[2020-11-09_14_00_00,6]: pv_load[2020-11-09_14_00_00,6]
   + grid_load[2020-11-09_14_00_00,6] = 4967.914872191797
 Load_balance[2020-11-09_14_00_00,7]: pv_load[2020-11-09_14_00_00,7]
   + grid_load[2020-11-09_14_00_00,7] = 4967.914872191797
 Load_balance[2020-11-09_14_00_00,8]: pv_load[2020-11-09_14_00_00,8]
   + grid_load[2020-11-09_14_00_00,8] = 4967.914872191797
 Load_balance[2020-11-09_14_00_00,9]: pv_load[2020-11-09_14_00_00,9]
   + grid_load[2020-11-09_14_00_00,9] = 4967.914872191797
 Load_balance[2020-11-09_14_00_00,10]: pv_load[2020-11-09_14_00_00,10]
   + grid_load[2020-11-09_14_00_00,10] = 4967.914872191797
 Load_balance[2020-11-09_14_00_00,11]: pv_load[2020-11-09_14_00_00,11]
   + grid_load[2020-11-09_14_00_00,11] = 4967.914872191797
 Load_balance[2020-11-09_14_00_00,12]: pv_load[2020-11-09_14_00_00,12]
   + grid_load[2020-11-09_14_00_00,12] = 4967.914872191797
 Load_balance[2020-11-09_14_00_00,13]: pv_load[2020-11-09_14_00_00,13]
   + grid_load[2020-11-09_14_00_00,13] = 4967.914872191797
 Load_balance[2020-11-09_14_00_00,14]: pv_load[2020-11-09_14_00_00,14]
   + grid_load[2020-11-09_14_00_00,14] = 4967.914872191797
 Load_balance[2020-11-09_14_00_00,15]: pv_load[2020-11-09_14_00_00,15]
   + grid_load[2020-11-09_14_00_00,15] = 4967.914872191797
 Load_balance[2020-11-09_14_00_00,16]: pv_load[2020-11-09_14_00_00,16]
   + grid_load[2020-11-09_14_00_00,16] = 4967.914872191797
 Load_balance[2020-11-09_14_00_00,17]: pv_load[2020-11-09_14_00_00,17]
   + grid_load[2020-11-09_14_00_00,17] = 4967.914872191797
 Load_balance[2020-11-09_14_00_00,18]: pv_load[2020-11-09_14_00_00,18]
   + grid_load[2020-11-09_14_00_00,18] = 4967.914872191797
 Load_balance[2020-11-09_14_00_00,19]: pv_load[2020-11-09_14_00_00,19]
   + grid_load[2020-11-09_14_00_00,19] = 4967.914872191797
 Grid_bought_balance[2020-11-09_14_00_00,0]: C111
   - grid_ev[2020-11-09_14_00_00,0] - grid_load[2020-11-09_14_00_00,0] = 0
 Grid_bought_balance[2020-11-09_14_00_00,1]: C112
   - grid_ev[2020-11-09_14_00_00,1] - grid_load[2020-11-09_14_00_00,1] = 0
 Grid_bought_balance[2020-11-09_14_00_00,2]: C113
   - grid_ev[2020-11-09_14_00_00,2] - grid_load[2020-11-09_14_00_00,2] = 0
 Grid_bought_balance[2020-11-09_14_00_00,3]: C114
   - grid_ev[2020-11-09_14_00_00,3] - grid_load[2020-11-09_14_00_00,3] = 0
 Grid_bought_balance[2020-11-09_14_00_00,4]: C115
   - grid_ev[2020-11-09_14_00_00,4] - grid_load[2020-11-09_14_00_00,4] = 0
 Grid_bought_balance[2020-11-09_14_00_00,5]: C116
   - grid_ev[2020-11-09_14_00_00,5] - grid_load[2020-11-09_14_00_00,5] = 0
 Grid_bought_balance[2020-11-09_14_00_00,6]: C117
   - grid_ev[2020-11-09_14_00_00,6] - grid_load[2020-11-09_14_00_00,6] = 0
 Grid_bought_balance[2020-11-09_14_00_00,7]: C118
   - grid_ev[2020-11-09_14_00_00,7] - grid_load[2020-11-09_14_00_00,7] = 0
 Grid_bought_balance[2020-11-09_14_00_00,8]: C119
   - grid_ev[2020-11-09_14_00_00,8] - grid_load[2020-11-09_14_00_00,8] = 0
 Grid_bought_balance[2020-11-09_14_00_00,9]: C120
   - grid_ev[2020-11-09_14_00_00,9] - grid_load[2020-11-09_14_00_00,9] = 0
 Grid_bought_balance[2020-11-09_14_00_00,10]: C121
   - grid_ev[2020-11-09_14_00_00,10] - grid_load[2020-11-09_14_00_00,10]
   = 0
 Grid_bought_balance[2020-11-09_14_00_00,11]: C122
   - grid_ev[2020-11-09_14_00_00,11] - grid_load[2020-11-09_14_00_00,11]
   = 0
 Grid_bought_balance[2020-11-09_14_00_00,12]: C123
   - grid_ev[2020-11-09_14_00_00,12] - grid_load[2020-11-09_14_00_00,12]
   = 0
 Grid_bought_balance[2020-11-09_14_00_00,13]: C124
   - grid_ev[2020-11-09_14_00_00,13] - grid_load[2020-11-09_14_00_00,13]
   = 0
 Grid_bought_balance[2020-11-09_14_00_00,14]: C125
   - grid_ev[2020-11-09_14_00_00,14] - grid_load[2020-11-09_14_00_00,14]
   = 0
 Grid_bought_balance[2020-11-09_14_00_00,15]: C126
   - grid_ev[2020-11-09_14_00_00,15] - grid_load[2020-11-09_14_00_00,15]
   = 0
 Grid_bought_balance[2020-11-09_14_00_00,16]: C127
   - grid_ev[2020-11-09_14_00_00,16] - grid_load[2020-11-09_14_00_00,16]
   = 0
 Grid_bought_balance[2020-11-09_14_00_00,17]: C128
   - grid_ev[2020-11-09_14_00_00,17] - grid_load[2020-11-09_14_00_00,17]
   = 0
 Grid_bought_balance[2020-11-09_14_00_00,18]: C129
   - grid_ev[2020-11-09_14_00_00,18] - grid_load[2020-11-09_14_00_00,18]
   = 0
 Grid_bought_balance[2020-11-09_14_00_00,19]: C130
   - grid_ev[2020-11-09_14_00_00,19] - grid_load[2020-11-09_14_00_00,19]
   = 0
 Grid_sold_balance[2020-11-09_14_00_00,0]: - pv_grid[2020-11-09_14_00_00,0]
   + C131 = 0
 Grid_sold_balance[2020-11-09_14_00_00,1]: - pv_grid[2020-11-09_14_00_00,1]
   + C132 = 0
 Grid_sold_balance[2020-11-09_14_00_00,2]: - pv_grid[2020-11-09_14_00_00,2]
   + C133 = 0
 Grid_sold_balance[2020-11-09_14_00_00,3]: - pv_grid[2020-11-09_14_00_00,3]
   + C134 = 0
 Grid_sold_balance[2020-11-09_14_00_00,4]: - pv_grid[2020-11-09_14_00_00,4]
   + C135 = 0
 Grid_sold_balance[2020-11-09_14_00_00,5]: - pv_grid[2020-11-09_14_00_00,5]
   + C136 = 0
 Grid_sold_balance[2020-11-09_14_00_00,6]: - pv_grid[2020-11-09_14_00_00,6]
   + C137 = 0
 Grid_sold_balance[2020-11-09_14_00_00,7]: - pv_grid[2020-11-09_14_00_00,7]
   + C138 = 0
 Grid_sold_balance[2020-11-09_14_00_00,8]: - pv_grid[2020-11-09_14_00_00,8]
   + C139 = 0
 Grid_sold_balance[2020-11-09_14_00_00,9]: - pv_grid[2020-11-09_14_00_00,9]
   + C140 = 0
 Grid_sold_balance[2020-11-09_14_00_00,10]:
   - pv_grid[2020-11-09_14_00_00,10] + C141 = 0
 Grid_sold_balance[2020-11-09_14_00_00,11]:
   - pv_grid[2020-11-09_14_00_00,11] + C142 = 0
 Grid_sold_balance[2020-11-09_14_00_00,12]:
   - pv_grid[2020-11-09_14_00_00,12] + C143 = 0
 Grid_sold_balance[2020-11-09_14_00_00,13]:
   - pv_grid[2020-11-09_14_00_00,13] + C144 = 0
 Grid_sold_balance[2020-11-09_14_00_00,14]:
   - pv_grid[2020-11-09_14_00_00,14] + C145 = 0
 Grid_sold_balance[2020-11-09_14_00_00,15]:
   - pv_grid[2020-11-09_14_00_00,15] + C146 = 0
 Grid_sold_balance[2020-11-09_14_00_00,16]:
   - pv_grid[2020-11-09_14_00_00,16] + C147 = 0
 Grid_sold_balance[2020-11-09_14_00_00,17]:
   - pv_grid[2020-11-09_14_00_00,17] + C148 = 0
 Grid_sold_balance[2020-11-09_14_00_00,18]:
   - pv_grid[2020-11-09_14_00_00,18] + C149 = 0
 Grid_sold_balance[2020-11-09_14_00_00,19]:
   - pv_grid[2020-11-09_14_00_00,19] + C150 = 0
 R87: C91 <= 0
 R88: C92 <= 0
 R89: C93 <= 0
 R90: C94 <= 0
 R91: C95 <= 0
 R92: C96 <= 0
 R93: C97 <= 0
 R94: C98 <= 0
 R95: C99 <= 0
 R96: C100 <= 0
 R97: C101 <= 0
 R98: C102 <= 0
 R99: C103 <= 0
 R100: C104 <= 0
 R101: C105 <= 0
 R102: C106 <= 0
 R103: C107 <= 0
 R104: C108 <= 0
 R105: C109 <= 0
 R106: C110 <= 0
 SOC_continuity[0]: - soc_2 + C71 = 0
 SOC_continuity[1]: - soc_2 + C72 = 0
 SOC_continuity[2]: - soc_2 + C73 = 0
 SOC_continuity[3]: - soc_2 + C74 = 0
 SOC_continuity[4]: - soc_2 + C75 = 0
 SOC_continuity[5]: - soc_2 + C76 = 0
 SOC_continuity[6]: - soc_2 + C77 = 0
 SOC_continuity[7]: - soc_2 + C78 = 0
 SOC_continuity[8]: - soc_2 + C79 = 0
 SOC_continuity[9]: - soc_2 + C80 = 0
 SOC_continuity[10]: - soc_2 + C81 = 0
 SOC_continuity[11]: - soc_2 + C82 = 0
 SOC_continuity[12]: - soc_2 + C83 = 0
 SOC_continuity[13]: - soc_2 + C84 = 0
 SOC_continuity[14]: - soc_2 + C85 = 0
 SOC_continuity[15]: - soc_2 + C86 = 0
 SOC_continuity[16]: - soc_2 + C87 = 0
 SOC_continuity[17]: - soc_2 + C88 = 0
 SOC_continuity[18]: - soc_2 + C89 = 0
 SOC_continuity[19]: - soc_2 + C90 = 0
 R127: C151 - C211 >= 0
 R128: C152 - C212 >= 0
 R129: C153 - C213 >= 0
 R130: C154 - C214 >= 0
 R131: C155 - C215 >= 0
 R132: C156 - C216 >= 0
 R133: C157 - C217 >= 0
 R134: C158 - C218 >= 0
 R135: C159 - C219 >= 0
 R136: C160 - C220 >= 0
 R137: C161 - C221 >= 0
 R138: C162 - C222 >= 0
 R139: C163 - C223 >= 0
 R140: C164 - C224 >= 0
 R141: C165 - C225 >= 0
 R142: C166 - C226 >= 0
 R143: C167 - C227 >= 0
 R144: C168 - C228 >= 0
 R145: C169 - C229 >= 0
 R146: C170 - C230 >= 0
 Grid_balance_1: - C4 - C6 + [ C5 * C7 + C6 * C7 ] = 84.16489100000126
 EV_balance_1: - pv_ev_1 + C4 + [ pv_ev_1 * C10 - grid_ev_1 * C10 ] = 0
 Grid_balance[2020-11-09_14_00_00,0]: - C91 - C131 + [ C111 * C151
   + C131 * C151 ] = -4412.47275141355
 Grid_balance[2020-11-09_14_00_00,1]: - C92 - C132 + [ C112 * C152
   + C132 * C152 ] = 197.7260946273473
 Grid_balance[2020-11-09_14_00_00,2]: - C93 - C133 + [ C113 * C153
   + C133 * C153 ] = 2000.34245553745
 Grid_balance[2020-11-09_14_00_00,3]: - C94 - C134 + [ C114 * C154
   + C134 * C154 ] = 3061.12721404317
 Grid_balance[2020-11-09_14_00_00,4]: - C95 - C135 + [ C115 * C155
   + C135 * C155 ] = -1825.612530744741
 Grid_balance[2020-11-09_14_00_00,5]: - C96 - C136 + [ C116 * C156
   + C136 * C156 ] = 1855.493431737694
 Grid_balance[2020-11-09_14_00_00,6]: - C97 - C137 + [ C117 * C157
   + C137 * C157 ] = -14.7333933871505
 Grid_balance[2020-11-09_14_00_00,7]: - C98 - C138 + [ C118 * C158
   + C138 * C158 ] = -1287.788403725206
 Grid_balance[2020-11-09_14_00_00,8]: - C99 - C139 + [ C119 * C159
   + C139 * C159 ] = -2512.899823367376
 Grid_balance[2020-11-09_14_00_00,9]: - C100 - C140 + [ C120 * C160
   + C140 * C160 ] = 485.148073848648
 Grid_balance[2020-11-09_14_00_00,10]: - C101 - C141 + [ C121 * C161
   + C141 * C161 ] = -2937.717336592318
 Grid_balance[2020-11-09_14_00_00,11]: - C102 - C142 + [ C122 * C162
   + C142 * C162 ] = 803.1091491992474
 Grid_balance[2020-11-09_14_00_00,12]: - C103 - C143 + [ C123 * C163
   + C143 * C163 ] = -393.7879609429874
 Grid_balance[2020-11-09_14_00_00,13]: - C104 - C144 + [ C124 * C164
   + C144 * C164 ] = -602.6588062093879
 Grid_balance[2020-11-09_14_00_00,14]: - C105 - C145 + [ C125 * C165
   + C145 * C165 ] = -304.0151213859081
 Grid_balance[2020-11-09_14_00_00,15]: - C106 - C146 + [ C126 * C166
   + C146 * C166 ] = 533.4942947193458
 Grid_balance[2020-11-09_14_00_00,16]: - C107 - C147 + [ C127 * C167
   + C147 * C167 ] = -258.9241654785628
 Grid_balance[2020-11-09_14_00_00,17]: - C108 - C148 + [ C128 * C168
   + C148 * C168 ] = -1847.326376072339
 Grid_balance[2020-11-09_14_00_00,18]: - C109 - C149 + [ C129 * C169
   + C149 * C169 ] = -1480.060820034992
 Grid_balance[2020-11-09_14_00_00,19]: - C110 - C150 + [ C130 * C170
   + C150 * C170 ] = -2195.652208686543
 EV_balance[2020-11-09_14_00_00,0]: - pv_ev[2020-11-09_14_00_00,0] + C91
   + [ pv_ev[2020-11-09_14_00_00,0] * C211
   - grid_ev[2020-11-09_14_00_00,0] * C211 ] = 0
 EV_balance[2020-11-09_14_00_00,1]: - pv_ev[2020-11-09_14_00_00,1] + C92
   + [ pv_ev[2020-11-09_14_00_00,1] * C212
   - grid_ev[2020-11-09_14_00_00,1] * C212 ] = 0
 EV_balance[2020-11-09_14_00_00,2]: - pv_ev[2020-11-09_14_00_00,2] + C93
   + [ pv_ev[2020-11-09_14_00_00,2] * C213
   - grid_ev[2020-11-09_14_00_00,2] * C213 ] = 0
 EV_balance[2020-11-09_14_00_00,3]: - pv_ev[2020-11-09_14_00_00,3] + C94
   + [ pv_ev[2020-11-09_14_00_00,3] * C214
   - grid_ev[2020-11-09_14_00_00,3] * C214 ] = 0
 EV_balance[2020-11-09_14_00_00,4]: - pv_ev[2020-11-09_14_00_00,4] + C95
   + [ pv_ev[2020-11-09_14_00_00,4] * C215
   - grid_ev[2020-11-09_14_00_00,4] * C215 ] = 0
 EV_balance[2020-11-09_14_00_00,5]: - pv_ev[2020-11-09_14_00_00,5] + C96
   + [ pv_ev[2020-11-09_14_00_00,5] * C216
   - grid_ev[2020-11-09_14_00_00,5] * C216 ] = 0
 EV_balance[2020-11-09_14_00_00,6]: - pv_ev[2020-11-09_14_00_00,6] + C97
   + [ pv_ev[2020-11-09_14_00_00,6] * C217
   - grid_ev[2020-11-09_14_00_00,6] * C217 ] = 0
 EV_balance[2020-11-09_14_00_00,7]: - pv_ev[2020-11-09_14_00_00,7] + C98
   + [ pv_ev[2020-11-09_14_00_00,7] * C218
   - grid_ev[2020-11-09_14_00_00,7] * C218 ] = 0
 EV_balance[2020-11-09_14_00_00,8]: - pv_ev[2020-11-09_14_00_00,8] + C99
   + [ pv_ev[2020-11-09_14_00_00,8] * C219
   - grid_ev[2020-11-09_14_00_00,8] * C219 ] = 0
 EV_balance[2020-11-09_14_00_00,9]: - pv_ev[2020-11-09_14_00_00,9] + C100
   + [ pv_ev[2020-11-09_14_00_00,9] * C220
   - grid_ev[2020-11-09_14_00_00,9] * C220 ] = 0
 EV_balance[2020-11-09_14_00_00,10]: - pv_ev[2020-11-09_14_00_00,10] + C101
   + [ pv_ev[2020-11-09_14_00_00,10] * C221
   - grid_ev[2020-11-09_14_00_00,10] * C221 ] = 0
 EV_balance[2020-11-09_14_00_00,11]: - pv_ev[2020-11-09_14_00_00,11] + C102
   + [ pv_ev[2020-11-09_14_00_00,11] * C222
   - grid_ev[2020-11-09_14_00_00,11] * C222 ] = 0
 EV_balance[2020-11-09_14_00_00,12]: - pv_ev[2020-11-09_14_00_00,12] + C103
   + [ pv_ev[2020-11-09_14_00_00,12] * C223
   - grid_ev[2020-11-09_14_00_00,12] * C223 ] = 0
 EV_balance[2020-11-09_14_00_00,13]: - pv_ev[2020-11-09_14_00_00,13] + C104
   + [ pv_ev[2020-11-09_14_00_00,13] * C224
   - grid_ev[2020-11-09_14_00_00,13] * C224 ] = 0
 EV_balance[2020-11-09_14_00_00,14]: - pv_ev[2020-11-09_14_00_00,14] + C105
   + [ pv_ev[2020-11-09_14_00_00,14] * C225
   - grid_ev[2020-11-09_14_00_00,14] * C225 ] = 0
 EV_balance[2020-11-09_14_00_00,15]: - pv_ev[2020-11-09_14_00_00,15] + C106
   + [ pv_ev[2020-11-09_14_00_00,15] * C226
   - grid_ev[2020-11-09_14_00_00,15] * C226 ] = 0
 EV_balance[2020-11-09_14_00_00,16]: - pv_ev[2020-11-09_14_00_00,16] + C107
   + [ pv_ev[2020-11-09_14_00_00,16] * C227
   - grid_ev[2020-11-09_14_00_00,16] * C227 ] = 0
 EV_balance[2020-11-09_14_00_00,17]: - pv_ev[2020-11-09_14_00_00,17] + C108
   + [ pv_ev[2020-11-09_14_00_00,17] * C228
   - grid_ev[2020-11-09_14_00_00,17] * C228 ] = 0
 EV_balance[2020-11-09_14_00_00,18]: - pv_ev[2020-11-09_14_00_00,18] + C109
   + [ pv_ev[2020-11-09_14_00_00,18] * C229
   - grid_ev[2020-11-09_14_00_00,18] * C229 ] = 0
 EV_balance[2020-11-09_14_00_00,19]: - pv_ev[2020-11-09_14_00_00,19] + C110
   + [ pv_ev[2020-11-09_14_00_00,19] * C230
   - grid_ev[2020-11-09_14_00_00,19] * C230 ] = 0
Bounds
 0.2 <= soc_2 <= 1
 C4 <= 3700
 0.2 <= C71 <= 1
 0.2 <= C72 <= 1
 0.2 <= C73 <= 1
 0.2 <= C74 <= 1
 0.2 <= C75 <= 1
 0.2 <= C76 <= 1
 0.2 <= C77 <= 1
 0.2 <= C78 <= 1
 0.2 <= C79 <= 1
 0.2 <= C80 <= 1
 0.2 <= C81 <= 1
 0.2 <= C82 <= 1
 0.2 <= C83 <= 1
 0.2 <= C84 <= 1
 0.2 <= C85 <= 1
 0.2 <= C86 <= 1
 0.2 <= C87 <= 1
 0.2 <= C88 <= 1
 0.2 <= C89 <= 1
 0.2 <= C90 <= 1
 C91 <= 3700
 C92 <= 3700
 C93 <= 3700
 C94 <= 3700
 C95 <= 3700
 C96 <= 3700
 C97 <= 3700
 C98 <= 3700
 C99 <= 3700
 C100 <= 3700
 C101 <= 3700
 C102 <= 3700
 C103 <= 3700
 C104 <= 3700
 C105 <= 3700
 C106 <= 3700
 C107 <= 3700
 C108 <= 3700
 C109 <= 3700
 C110 <= 3700
 Constant = 1
Binaries
 C7 C10 C151 C152 C153 C154 C155 C156 C157 C158 C159 C160 C161 C162 C163
 C164 C165 C166 C167 C168 C169 C170 C211 C212 C213 C214 C215 C216 C217 C218
 C219 C220 C221 C222 C223 C224 C225 C226 C227 C228 C229 C230
End
